File : Instances/p62
Used 68s
36017

0 0 0 1 0 1 1 1 0 0 0 0 0 1 0 0 0 0 0 1 0 1 0 0 1 1 0 1 1 0 
7 19 21 27 21 25 21 27 27 27 6 28 13 3 28 7 3 13 27 27 27 21 5 24 5 27 27 28 19 21 19 19 19 21 27 6 13 3 24 21 7 13 6 19 3 19 3 21 19 19 24 24 24 21 13 6 25 19 27 7 6 24 7 13 3 25 5 28 28 25 7 6 6 13 5 13 3 5 3 24 13 5 19 25 6 13 6 5 27 7 28 6 25 25 5 3 28 6 5 28 28 21 25 7 6 24 6 24 27 3 19 6 27 6 25 13 28 7 28 3 19 25 28 19 19 21 21 25 19 28 28 24 25 13 5 3 3 3 28 13 25 27 28 25 25 5 24 21 27 25 24 28 5 24 13 28 5 21 3 13 13 27 13 24 5 27 5 6 3 21 5 13 19 19 19 21 24 13 6 13 5 21 24 19 25 3 28 13 27 21 21 21 6 6 7 25 7 21 13 19 
